//Dat File

outFile="MPVSBPP_SET1_IT200_ITV1_NT1_TS3_WT1_VT1_REP10";
m=200;
o=34;
p=3;
numVTypes=1;

demand = [11, 2, 11, 2, 9, 7, 3, 7, 9, 11, 11, 5, 8, 4, 7, 1, 4, 4, 8, 9, 2, 8, 1, 4, 3, 5, 8, 1, 2, 7, 7, 10, 6, 8, 3, 3, 9, 4, 6, 5, 2, 8, 4, 10, 10, 10, 9, 5, 8, 1, 10, 6, 10, 4, 3, 2, 10, 1, 8, 10, 11, 8, 5, 11, 9, 11, 1, 8, 10, 10, 5, 7, 7, 6, 8, 3, 9, 7, 5, 5, 11, 2, 7, 9, 7, 3, 5, 6, 9, 10, 9, 3, 8, 4, 8, 2, 6, 10, 3, 6, 9, 8, 2, 9, 1, 6, 5, 10, 4, 1, 1, 8, 11, 1, 8, 7, 11, 8, 8, 5, 8, 10, 11, 10, 4, 1, 5, 6, 5, 10, 10, 3, 7, 5, 1, 5, 7, 8, 9, 9, 4, 6, 2, 5, 9, 5, 6, 8, 10, 5, 13, 16, 19, 17, 13, 14, 13, 15, 13, 19, 13, 13, 17, 16, 13, 15, 19, 15, 19, 13, 19, 17, 15, 13, 17, 12, 16, 18, 16, 19, 12, 14, 16, 16, 15, 15, 18, 16, 13, 15, 14, 16, 13, 14, 13, 16, 15, 15, 18, 14];
Depot_Cap = [30000, 30000, 30000];
Tarif = [10, 3, 7];
VeicVolume = [100];
VeicCost = [100];
VeicType = [1, 1, 1, 1, 1, 1, 1, 1, 1, 1, 1, 1, 1, 1, 1, 1, 1, 1, 1, 1, 1, 1, 1, 1, 1, 1, 1, 1, 1, 1, 1, 1, 1, 1];
Elect_vehicle = [[70, 100, 30], [70, 100, 30], [70, 100, 30], [70, 100, 30], [70, 100, 30], [70, 100, 30], [70, 100, 30], [70, 100, 30], [70, 100, 30], [70, 100, 30], [70, 100, 30], [70, 100, 30], [70, 100, 30], [70, 100, 30], [70, 100, 30], [70, 100, 30], [70, 100, 30], [70, 100, 30], [70, 100, 30], [70, 100, 30], [70, 100, 30], [70, 100, 30], [70, 100, 30], [70, 100, 30], [70, 100, 30], [70, 100, 30], [70, 100, 30], [70, 100, 30], [70, 100, 30], [70, 100, 30], [70, 100, 30], [70, 100, 30], [70, 100, 30], [70, 100, 30]];